outputs/case_293.model.txt
financial_investment_experience_years = 0
customer_evaluator = True
customer_attribute_evaluation_separation = False
transaction_is_hedging = False
has_qualified_financial_report = False
has_other_financial_knowledge = False
is_corporate_or_fund = False
financial_report_securities_or_derivatives = False
authorized_trader_has_expertise = False
evaluation_recorded_audio = False
has_financial_knowledge_and_experience = False
financial_report_total_assets = 0
customer_is_professional = False
disciplinary_records_in_3_years = False
signed_professional_client_agreement = False
trustee_meets_professional_client_conditions = False
is_trust_company = False
passed_cia_exam = False
is_team_leader = False
derivative_product_suitability_system_established = False
accounting_firm_experience_years = 0
has_investment_decision_unit = False
evaluation_recorded_video = False
single_transaction_amount = 0
audit_experience_years = 0
college_graduate = False
evaluation_recorded_electronic = False
customer_is_general = True
passed_high_exam = False
customer_evaluation_reviewed = False
is_professional_institutional_investor = False
reasonable_investigation_done = False
financial_experience_years = 0
local_regulation_has_qualification_requirements = False
total_assets = 0
passed_equivalent_exam = False
investment_experience_years = 0
internal_audit_experience_years = 0
internal_audit_staff_total = 0
product_promoter = True
product_is_non_structured = False
audit_or_inspection_experience_years = 0
annual_review_done = False
is_individual = False
customer_evaluation_review_confirmed = False
is_corporate_or_subsidiary = False
board_approved_selection = False
disciplinary_records_offset = False
financial_capacity = 0
internal_control_system_executed = True
internal_control_system_established = True
internal_handling_system_executed = True
internal_operation_system_executed = True
internal_handling_system_established = True
internal_operation_system_established = True
internal_operation_executed = True
internal_handling_established = True
derivative_customer_evaluation_reviewed = False
internal_audit_staff_violation = False
internal_audit_staff_compliance = True
internal_operation_ok = True
internal_handling_ok = True
professional_client_due_diligence = False
internal_audit_staff_qualified = False
internal_control_executed = True
penalty = False
professional_client_definition_met = False
first_time_customer_evaluation_recorded = False
derivative_product_level_restriction = False
internal_operation_established = True
internal_handling_executed = True
internal_control_established = True
foreign_office_audit_staff_qualified = False
internal_control_ok = True
derivative_product_suitability_established = False